c Standarized MaxSat Instance
c{
c "sha1sum": "17d828a2d4bc7d09415dda45c690c8c6826f9c05",
c "nvars": 43,
c "ncls": 1270,
c "nhards": 0,
c "nhard_len_stats":
c    { "min": 0, "max": 0, "ave": 0.00,
c      "stddev": 0.00 },
c "nsofts": 1270,
c "nsoft_len_stats":
c    { "min": 2, "max": 2, "ave": 2.00,
c      "stddev": 0.00 },
c "nsoft_wts": 10,
c "soft_wt_stats":
c    { "min": 1, "max": 10, "ave": 5.68,
c      "stddev": 2.81 }
c}
c------------------------------------------------------------
c File  p_hat300-3.clq
c
c Source: P. Soriano and M. Gendreau at  patrick@crt.umontreal.ca
c
c Reference: p-hat graphs are generated with the p-hat generator
c 	      which is a generalisation of the classical uniform
c 	      random graph generator.
c 	      Graphs generated with p-hat have wider node degree spread
c 	      and larger cliques than uniform graphs.
c
c NOTE: September 23, 1993 Corrected corrupted file at DIMACS.
c
c
c Generation parameters: 
c 	n =    300 a =  0.50  b =  1.00  Expected density =  0.75
c	Seed =       8713       Real density =  0.744
c
p wcnf 43 1270 7217
9 1 2 0
9 -1 -2 0
4 1 5 0
4 -1 -5 0
8 1 7 0
8 -1 -7 0
8 1 9 0
8 -1 -9 0
10 1 10 0
10 -1 -10 0
2 1 11 0
2 -1 -11 0
4 1 12 0
4 -1 -12 0
8 1 13 0
8 -1 -13 0
3 1 17 0
3 -1 -17 0
6 1 20 0
6 -1 -20 0
5 1 21 0
5 -1 -21 0
7 1 22 0
7 -1 -22 0
4 1 23 0
4 -1 -23 0
6 1 24 0
6 -1 -24 0
10 1 26 0
10 -1 -26 0
10 1 27 0
10 -1 -27 0
7 1 28 0
7 -1 -28 0
8 1 29 0
8 -1 -29 0
2 1 31 0
2 -1 -31 0
7 1 33 0
7 -1 -33 0
1 1 34 0
1 -1 -34 0
3 1 35 0
3 -1 -35 0
2 1 36 0
2 -1 -36 0
9 1 39 0
9 -1 -39 0
2 1 41 0
2 -1 -41 0
5 1 43 0
5 -1 -43 0
2 2 4 0
2 -2 -4 0
2 2 6 0
2 -2 -6 0
10 2 7 0
10 -2 -7 0
3 2 8 0
3 -2 -8 0
6 2 9 0
6 -2 -9 0
9 2 10 0
9 -2 -10 0
7 2 11 0
7 -2 -11 0
3 2 13 0
3 -2 -13 0
7 2 15 0
7 -2 -15 0
6 2 17 0
6 -2 -17 0
5 2 18 0
5 -2 -18 0
10 2 19 0
10 -2 -19 0
3 2 22 0
3 -2 -22 0
8 2 27 0
8 -2 -27 0
6 2 28 0
6 -2 -28 0
8 2 30 0
8 -2 -30 0
5 2 33 0
5 -2 -33 0
9 2 34 0
9 -2 -34 0
3 2 35 0
3 -2 -35 0
4 2 37 0
4 -2 -37 0
9 2 38 0
9 -2 -38 0
10 2 40 0
10 -2 -40 0
1 2 41 0
1 -2 -41 0
10 2 42 0
10 -2 -42 0
6 2 43 0
6 -2 -43 0
1 3 5 0
1 -3 -5 0
2 3 6 0
2 -3 -6 0
7 3 10 0
7 -3 -10 0
9 3 14 0
9 -3 -14 0
4 3 15 0
4 -3 -15 0
1 3 16 0
1 -3 -16 0
1 3 17 0
1 -3 -17 0
5 3 23 0
5 -3 -23 0
1 3 24 0
1 -3 -24 0
3 3 25 0
3 -3 -25 0
10 3 26 0
10 -3 -26 0
10 3 27 0
10 -3 -27 0
9 3 28 0
9 -3 -28 0
3 3 29 0
3 -3 -29 0
6 3 30 0
6 -3 -30 0
4 3 31 0
4 -3 -31 0
8 3 32 0
8 -3 -32 0
6 3 34 0
6 -3 -34 0
7 3 35 0
7 -3 -35 0
6 3 36 0
6 -3 -36 0
1 3 37 0
1 -3 -37 0
5 3 38 0
5 -3 -38 0
10 3 41 0
10 -3 -41 0
10 3 42 0
10 -3 -42 0
8 3 43 0
8 -3 -43 0
3 4 7 0
3 -4 -7 0
8 4 9 0
8 -4 -9 0
7 4 10 0
7 -4 -10 0
4 4 11 0
4 -4 -11 0
7 4 12 0
7 -4 -12 0
2 4 13 0
2 -4 -13 0
5 4 14 0
5 -4 -14 0
9 4 15 0
9 -4 -15 0
9 4 16 0
9 -4 -16 0
4 4 17 0
4 -4 -17 0
3 4 18 0
3 -4 -18 0
9 4 19 0
9 -4 -19 0
4 4 20 0
4 -4 -20 0
7 4 21 0
7 -4 -21 0
10 4 23 0
10 -4 -23 0
6 4 25 0
6 -4 -25 0
7 4 26 0
7 -4 -26 0
9 4 27 0
9 -4 -27 0
5 4 28 0
5 -4 -28 0
10 4 29 0
10 -4 -29 0
4 4 30 0
4 -4 -30 0
9 4 32 0
9 -4 -32 0
7 4 33 0
7 -4 -33 0
10 4 34 0
10 -4 -34 0
5 4 35 0
5 -4 -35 0
3 4 37 0
3 -4 -37 0
10 4 38 0
10 -4 -38 0
10 4 39 0
10 -4 -39 0
2 4 40 0
2 -4 -40 0
9 4 41 0
9 -4 -41 0
7 4 43 0
7 -4 -43 0
5 5 6 0
5 -5 -6 0
7 5 7 0
7 -5 -7 0
3 5 8 0
3 -5 -8 0
8 5 9 0
8 -5 -9 0
4 5 11 0
4 -5 -11 0
5 5 12 0
5 -5 -12 0
3 5 14 0
3 -5 -14 0
2 5 15 0
2 -5 -15 0
3 5 16 0
3 -5 -16 0
6 5 18 0
6 -5 -18 0
5 5 19 0
5 -5 -19 0
2 5 21 0
2 -5 -21 0
10 5 24 0
10 -5 -24 0
2 5 25 0
2 -5 -25 0
2 5 26 0
2 -5 -26 0
5 5 29 0
5 -5 -29 0
8 5 30 0
8 -5 -30 0
10 5 31 0
10 -5 -31 0
10 5 32 0
10 -5 -32 0
7 5 33 0
7 -5 -33 0
4 5 35 0
4 -5 -35 0
8 5 36 0
8 -5 -36 0
4 5 37 0
4 -5 -37 0
3 5 39 0
3 -5 -39 0
3 5 40 0
3 -5 -40 0
6 5 42 0
6 -5 -42 0
3 6 7 0
3 -6 -7 0
2 6 11 0
2 -6 -11 0
8 6 12 0
8 -6 -12 0
2 6 14 0
2 -6 -14 0
8 6 15 0
8 -6 -15 0
2 6 17 0
2 -6 -17 0
8 6 20 0
8 -6 -20 0
1 6 21 0
1 -6 -21 0
10 6 22 0
10 -6 -22 0
1 6 24 0
1 -6 -24 0
6 6 25 0
6 -6 -25 0
2 6 26 0
2 -6 -26 0
3 6 27 0
3 -6 -27 0
8 6 29 0
8 -6 -29 0
8 6 30 0
8 -6 -30 0
7 6 31 0
7 -6 -31 0
10 6 32 0
10 -6 -32 0
7 6 33 0
7 -6 -33 0
8 6 34 0
8 -6 -34 0
1 6 35 0
1 -6 -35 0
2 6 36 0
2 -6 -36 0
6 6 37 0
6 -6 -37 0
1 6 38 0
1 -6 -38 0
1 6 39 0
1 -6 -39 0
3 6 40 0
3 -6 -40 0
5 6 41 0
5 -6 -41 0
9 6 42 0
9 -6 -42 0
6 7 8 0
6 -7 -8 0
8 7 9 0
8 -7 -9 0
1 7 10 0
1 -7 -10 0
2 7 11 0
2 -7 -11 0
10 7 12 0
10 -7 -12 0
3 7 13 0
3 -7 -13 0
9 7 14 0
9 -7 -14 0
2 7 16 0
2 -7 -16 0
10 7 17 0
10 -7 -17 0
1 7 18 0
1 -7 -18 0
9 7 19 0
9 -7 -19 0
1 7 22 0
1 -7 -22 0
1 7 23 0
1 -7 -23 0
10 7 24 0
10 -7 -24 0
6 7 25 0
6 -7 -25 0
2 7 26 0
2 -7 -26 0
2 7 27 0
2 -7 -27 0
4 7 28 0
4 -7 -28 0
10 7 29 0
10 -7 -29 0
9 7 30 0
9 -7 -30 0
4 7 31 0
4 -7 -31 0
6 7 32 0
6 -7 -32 0
6 7 33 0
6 -7 -33 0
5 7 34 0
5 -7 -34 0
7 7 35 0
7 -7 -35 0
1 7 36 0
1 -7 -36 0
6 7 37 0
6 -7 -37 0
8 7 38 0
8 -7 -38 0
4 7 39 0
4 -7 -39 0
10 7 40 0
10 -7 -40 0
6 7 42 0
6 -7 -42 0
9 7 43 0
9 -7 -43 0
8 8 9 0
8 -8 -9 0
7 8 11 0
7 -8 -11 0
1 8 12 0
1 -8 -12 0
8 8 14 0
8 -8 -14 0
9 8 15 0
9 -8 -15 0
10 8 16 0
10 -8 -16 0
9 8 19 0
9 -8 -19 0
9 8 24 0
9 -8 -24 0
10 8 25 0
10 -8 -25 0
8 8 28 0
8 -8 -28 0
10 8 29 0
10 -8 -29 0
10 8 30 0
10 -8 -30 0
7 8 31 0
7 -8 -31 0
5 8 32 0
5 -8 -32 0
2 8 33 0
2 -8 -33 0
9 8 35 0
9 -8 -35 0
9 8 39 0
9 -8 -39 0
1 8 40 0
1 -8 -40 0
7 8 41 0
7 -8 -41 0
3 9 10 0
3 -9 -10 0
7 9 11 0
7 -9 -11 0
3 9 12 0
3 -9 -12 0
8 9 13 0
8 -9 -13 0
4 9 14 0
4 -9 -14 0
4 9 15 0
4 -9 -15 0
3 9 16 0
3 -9 -16 0
1 9 17 0
1 -9 -17 0
7 9 18 0
7 -9 -18 0
3 9 19 0
3 -9 -19 0
7 9 21 0
7 -9 -21 0
6 9 22 0
6 -9 -22 0
10 9 24 0
10 -9 -24 0
3 9 25 0
3 -9 -25 0
6 9 26 0
6 -9 -26 0
8 9 28 0
8 -9 -28 0
2 9 29 0
2 -9 -29 0
5 9 30 0
5 -9 -30 0
6 9 32 0
6 -9 -32 0
10 9 33 0
10 -9 -33 0
5 9 34 0
5 -9 -34 0
4 9 35 0
4 -9 -35 0
9 9 37 0
9 -9 -37 0
5 9 38 0
5 -9 -38 0
1 9 39 0
1 -9 -39 0
4 9 41 0
4 -9 -41 0
6 9 42 0
6 -9 -42 0
9 10 14 0
9 -10 -14 0
3 10 15 0
3 -10 -15 0
7 10 18 0
7 -10 -18 0
5 10 20 0
5 -10 -20 0
5 10 26 0
5 -10 -26 0
4 10 27 0
4 -10 -27 0
8 10 28 0
8 -10 -28 0
2 10 31 0
2 -10 -31 0
7 10 33 0
7 -10 -33 0
1 10 35 0
1 -10 -35 0
5 10 36 0
5 -10 -36 0
7 10 39 0
7 -10 -39 0
7 10 40 0
7 -10 -40 0
7 10 41 0
7 -10 -41 0
4 10 42 0
4 -10 -42 0
2 11 12 0
2 -11 -12 0
7 11 13 0
7 -11 -13 0
7 11 14 0
7 -11 -14 0
8 11 16 0
8 -11 -16 0
4 11 18 0
4 -11 -18 0
8 11 19 0
8 -11 -19 0
3 11 21 0
3 -11 -21 0
10 11 24 0
10 -11 -24 0
7 11 25 0
7 -11 -25 0
7 11 26 0
7 -11 -26 0
3 11 27 0
3 -11 -27 0
6 11 28 0
6 -11 -28 0
1 11 29 0
1 -11 -29 0
3 11 31 0
3 -11 -31 0
9 11 32 0
9 -11 -32 0
7 11 33 0
7 -11 -33 0
1 11 36 0
1 -11 -36 0
2 11 38 0
2 -11 -38 0
4 11 39 0
4 -11 -39 0
6 11 40 0
6 -11 -40 0
6 11 41 0
6 -11 -41 0
7 11 42 0
7 -11 -42 0
3 11 43 0
3 -11 -43 0
8 12 15 0
8 -12 -15 0
3 12 16 0
3 -12 -16 0
4 12 17 0
4 -12 -17 0
2 12 18 0
2 -12 -18 0
10 12 19 0
10 -12 -19 0
1 12 20 0
1 -12 -20 0
9 12 21 0
9 -12 -21 0
4 12 22 0
4 -12 -22 0
2 12 23 0
2 -12 -23 0
5 12 24 0
5 -12 -24 0
10 12 28 0
10 -12 -28 0
10 12 29 0
10 -12 -29 0
8 12 30 0
8 -12 -30 0
7 12 31 0
7 -12 -31 0
2 12 32 0
2 -12 -32 0
7 12 33 0
7 -12 -33 0
4 12 34 0
4 -12 -34 0
8 12 35 0
8 -12 -35 0
10 12 36 0
10 -12 -36 0
10 12 37 0
10 -12 -37 0
9 12 38 0
9 -12 -38 0
3 12 39 0
3 -12 -39 0
8 12 40 0
8 -12 -40 0
6 12 41 0
6 -12 -41 0
3 12 42 0
3 -12 -42 0
10 13 14 0
10 -13 -14 0
10 13 16 0
10 -13 -16 0
9 13 20 0
9 -13 -20 0
5 13 25 0
5 -13 -25 0
6 13 26 0
6 -13 -26 0
2 13 27 0
2 -13 -27 0
3 13 28 0
3 -13 -28 0
9 13 29 0
9 -13 -29 0
5 13 30 0
5 -13 -30 0
5 13 31 0
5 -13 -31 0
9 13 33 0
9 -13 -33 0
5 13 34 0
5 -13 -34 0
3 13 35 0
3 -13 -35 0
2 13 36 0
2 -13 -36 0
7 13 37 0
7 -13 -37 0
8 13 38 0
8 -13 -38 0
2 13 39 0
2 -13 -39 0
7 13 40 0
7 -13 -40 0
5 13 42 0
5 -13 -42 0
9 13 43 0
9 -13 -43 0
8 14 15 0
8 -14 -15 0
2 14 17 0
2 -14 -17 0
3 14 20 0
3 -14 -20 0
5 14 21 0
5 -14 -21 0
2 14 22 0
2 -14 -22 0
2 14 23 0
2 -14 -23 0
4 14 26 0
4 -14 -26 0
4 14 27 0
4 -14 -27 0
10 14 28 0
10 -14 -28 0
10 14 30 0
10 -14 -30 0
7 14 33 0
7 -14 -33 0
9 14 34 0
9 -14 -34 0
9 14 35 0
9 -14 -35 0
5 14 36 0
5 -14 -36 0
4 14 37 0
4 -14 -37 0
4 14 38 0
4 -14 -38 0
7 14 40 0
7 -14 -40 0
7 14 41 0
7 -14 -41 0
3 14 42 0
3 -14 -42 0
2 15 17 0
2 -15 -17 0
1 15 18 0
1 -15 -18 0
2 15 20 0
2 -15 -20 0
7 15 21 0
7 -15 -21 0
4 15 22 0
4 -15 -22 0
3 15 24 0
3 -15 -24 0
4 15 28 0
4 -15 -28 0
1 15 29 0
1 -15 -29 0
5 15 30 0
5 -15 -30 0
10 15 31 0
10 -15 -31 0
6 15 32 0
6 -15 -32 0
3 15 33 0
3 -15 -33 0
7 15 34 0
7 -15 -34 0
8 15 35 0
8 -15 -35 0
5 15 36 0
5 -15 -36 0
2 15 37 0
2 -15 -37 0
9 15 38 0
9 -15 -38 0
7 15 39 0
7 -15 -39 0
6 15 41 0
6 -15 -41 0
3 15 42 0
3 -15 -42 0
6 16 18 0
6 -16 -18 0
5 16 23 0
5 -16 -23 0
9 16 26 0
9 -16 -26 0
4 16 28 0
4 -16 -28 0
3 16 29 0
3 -16 -29 0
4 16 30 0
4 -16 -30 0
8 16 31 0
8 -16 -31 0
7 16 34 0
7 -16 -34 0
10 16 35 0
10 -16 -35 0
4 16 36 0
4 -16 -36 0
9 16 38 0
9 -16 -38 0
2 16 39 0
2 -16 -39 0
5 16 40 0
5 -16 -40 0
1 16 41 0
1 -16 -41 0
8 16 43 0
8 -16 -43 0
8 17 18 0
8 -17 -18 0
3 17 21 0
3 -17 -21 0
2 17 23 0
2 -17 -23 0
9 17 27 0
9 -17 -27 0
8 17 28 0
8 -17 -28 0
1 17 29 0
1 -17 -29 0
5 17 30 0
5 -17 -30 0
10 17 31 0
10 -17 -31 0
8 17 33 0
8 -17 -33 0
3 17 34 0
3 -17 -34 0
5 17 35 0
5 -17 -35 0
9 17 36 0
9 -17 -36 0
1 17 37 0
1 -17 -37 0
1 17 38 0
1 -17 -38 0
4 17 39 0
4 -17 -39 0
4 17 40 0
4 -17 -40 0
7 17 41 0
7 -17 -41 0
9 18 19 0
9 -18 -19 0
2 18 21 0
2 -18 -21 0
1 18 22 0
1 -18 -22 0
1 18 23 0
1 -18 -23 0
5 18 24 0
5 -18 -24 0
8 18 25 0
8 -18 -25 0
7 18 26 0
7 -18 -26 0
5 18 29 0
5 -18 -29 0
2 18 30 0
2 -18 -30 0
6 18 31 0
6 -18 -31 0
6 18 32 0
6 -18 -32 0
6 18 34 0
6 -18 -34 0
6 18 35 0
6 -18 -35 0
4 18 36 0
4 -18 -36 0
4 18 37 0
4 -18 -37 0
9 18 38 0
9 -18 -38 0
5 18 39 0
5 -18 -39 0
2 18 40 0
2 -18 -40 0
7 18 41 0
7 -18 -41 0
6 18 42 0
6 -18 -42 0
7 19 20 0
7 -19 -20 0
6 19 21 0
6 -19 -21 0
3 19 24 0
3 -19 -24 0
9 19 25 0
9 -19 -25 0
1 19 26 0
1 -19 -26 0
1 19 28 0
1 -19 -28 0
10 19 29 0
10 -19 -29 0
2 19 32 0
2 -19 -32 0
5 19 33 0
5 -19 -33 0
3 19 34 0
3 -19 -34 0
9 19 35 0
9 -19 -35 0
3 19 36 0
3 -19 -36 0
4 19 37 0
4 -19 -37 0
9 19 38 0
9 -19 -38 0
4 19 40 0
4 -19 -40 0
9 19 41 0
9 -19 -41 0
7 19 42 0
7 -19 -42 0
1 20 22 0
1 -20 -22 0
3 20 24 0
3 -20 -24 0
8 20 26 0
8 -20 -26 0
7 20 28 0
7 -20 -28 0
9 20 29 0
9 -20 -29 0
4 20 30 0
4 -20 -30 0
3 20 31 0
3 -20 -31 0
2 20 32 0
2 -20 -32 0
7 20 34 0
7 -20 -34 0
2 20 35 0
2 -20 -35 0
7 20 36 0
7 -20 -36 0
8 20 38 0
8 -20 -38 0
8 20 39 0
8 -20 -39 0
3 20 40 0
3 -20 -40 0
5 20 41 0
5 -20 -41 0
4 20 42 0
4 -20 -42 0
5 20 43 0
5 -20 -43 0
3 21 22 0
3 -21 -22 0
4 21 23 0
4 -21 -23 0
6 21 26 0
6 -21 -26 0
2 21 27 0
2 -21 -27 0
6 21 28 0
6 -21 -28 0
1 21 29 0
1 -21 -29 0
4 21 30 0
4 -21 -30 0
4 21 31 0
4 -21 -31 0
4 21 32 0
4 -21 -32 0
8 21 33 0
8 -21 -33 0
3 21 34 0
3 -21 -34 0
7 21 37 0
7 -21 -37 0
6 21 38 0
6 -21 -38 0
10 21 40 0
10 -21 -40 0
7 21 42 0
7 -21 -42 0
9 22 23 0
9 -22 -23 0
7 22 24 0
7 -22 -24 0
4 22 26 0
4 -22 -26 0
7 22 27 0
7 -22 -27 0
1 22 30 0
1 -22 -30 0
6 22 31 0
6 -22 -31 0
9 22 32 0
9 -22 -32 0
7 22 33 0
7 -22 -33 0
7 22 34 0
7 -22 -34 0
6 22 35 0
6 -22 -35 0
5 22 36 0
5 -22 -36 0
4 22 37 0
4 -22 -37 0
8 22 38 0
8 -22 -38 0
9 22 42 0
9 -22 -42 0
7 22 43 0
7 -22 -43 0
2 23 28 0
2 -23 -28 0
1 23 29 0
1 -23 -29 0
1 23 30 0
1 -23 -30 0
7 23 33 0
7 -23 -33 0
2 23 34 0
2 -23 -34 0
7 23 35 0
7 -23 -35 0
8 23 36 0
8 -23 -36 0
6 23 38 0
6 -23 -38 0
1 23 39 0
1 -23 -39 0
1 23 40 0
1 -23 -40 0
4 23 41 0
4 -23 -41 0
3 24 25 0
3 -24 -25 0
7 24 28 0
7 -24 -28 0
9 24 29 0
9 -24 -29 0
2 24 30 0
2 -24 -30 0
4 24 32 0
4 -24 -32 0
7 24 33 0
7 -24 -33 0
9 24 34 0
9 -24 -34 0
7 24 37 0
7 -24 -37 0
4 24 38 0
4 -24 -38 0
9 24 39 0
9 -24 -39 0
2 24 40 0
2 -24 -40 0
2 24 41 0
2 -24 -41 0
6 24 42 0
6 -24 -42 0
9 25 26 0
9 -25 -26 0
7 25 27 0
7 -25 -27 0
10 25 28 0
10 -25 -28 0
2 25 29 0
2 -25 -29 0
4 25 31 0
4 -25 -31 0
8 25 32 0
8 -25 -32 0
9 25 33 0
9 -25 -33 0
6 25 34 0
6 -25 -34 0
8 25 36 0
8 -25 -36 0
10 25 37 0
10 -25 -37 0
3 25 40 0
3 -25 -40 0
10 25 41 0
10 -25 -41 0
6 25 42 0
6 -25 -42 0
10 26 27 0
10 -26 -27 0
5 26 28 0
5 -26 -28 0
6 26 29 0
6 -26 -29 0
10 26 30 0
10 -26 -30 0
8 26 31 0
8 -26 -31 0
9 26 33 0
9 -26 -33 0
6 26 34 0
6 -26 -34 0
7 26 35 0
7 -26 -35 0
10 26 36 0
10 -26 -36 0
10 26 38 0
10 -26 -38 0
4 26 39 0
4 -26 -39 0
9 26 40 0
9 -26 -40 0
6 26 41 0
6 -26 -41 0
7 27 28 0
7 -27 -28 0
8 27 29 0
8 -27 -29 0
8 27 30 0
8 -27 -30 0
8 27 31 0
8 -27 -31 0
3 27 32 0
3 -27 -32 0
7 27 33 0
7 -27 -33 0
5 27 34 0
5 -27 -34 0
2 27 35 0
2 -27 -35 0
8 27 36 0
8 -27 -36 0
9 27 38 0
9 -27 -38 0
9 27 39 0
9 -27 -39 0
7 27 40 0
7 -27 -40 0
5 27 41 0
5 -27 -41 0
7 27 42 0
7 -27 -42 0
6 27 43 0
6 -27 -43 0
7 28 29 0
7 -28 -29 0
6 28 30 0
6 -28 -30 0
2 28 31 0
2 -28 -31 0
6 28 32 0
6 -28 -32 0
1 28 33 0
1 -28 -33 0
8 28 35 0
8 -28 -35 0
6 28 36 0
6 -28 -36 0
9 28 37 0
9 -28 -37 0
6 28 38 0
6 -28 -38 0
2 28 39 0
2 -28 -39 0
5 28 40 0
5 -28 -40 0
6 28 41 0
6 -28 -41 0
1 28 42 0
1 -28 -42 0
9 28 43 0
9 -28 -43 0
4 29 30 0
4 -29 -30 0
7 29 31 0
7 -29 -31 0
5 29 32 0
5 -29 -32 0
2 29 33 0
2 -29 -33 0
5 29 35 0
5 -29 -35 0
3 29 36 0
3 -29 -36 0
5 29 38 0
5 -29 -38 0
1 29 40 0
1 -29 -40 0
8 29 41 0
8 -29 -41 0
6 29 42 0
6 -29 -42 0
9 29 43 0
9 -29 -43 0
6 30 31 0
6 -30 -31 0
5 30 32 0
5 -30 -32 0
5 30 33 0
5 -30 -33 0
10 30 34 0
10 -30 -34 0
1 30 35 0
1 -30 -35 0
1 30 36 0
1 -30 -36 0
7 30 37 0
7 -30 -37 0
6 30 38 0
6 -30 -38 0
3 30 40 0
3 -30 -40 0
3 30 41 0
3 -30 -41 0
7 30 43 0
7 -30 -43 0
10 31 32 0
10 -31 -32 0
8 31 33 0
8 -31 -33 0
5 31 34 0
5 -31 -34 0
5 31 35 0
5 -31 -35 0
9 31 36 0
9 -31 -36 0
10 31 39 0
10 -31 -39 0
10 31 40 0
10 -31 -40 0
9 31 41 0
9 -31 -41 0
8 32 33 0
8 -32 -33 0
4 32 34 0
4 -32 -34 0
6 32 35 0
6 -32 -35 0
3 32 36 0
3 -32 -36 0
5 32 38 0
5 -32 -38 0
10 32 39 0
10 -32 -39 0
5 32 40 0
5 -32 -40 0
9 32 41 0
9 -32 -41 0
10 32 42 0
10 -32 -42 0
2 32 43 0
2 -32 -43 0
5 33 34 0
5 -33 -34 0
8 33 35 0
8 -33 -35 0
8 33 36 0
8 -33 -36 0
10 33 38 0
10 -33 -38 0
3 33 40 0
3 -33 -40 0
8 33 41 0
8 -33 -41 0
10 34 35 0
10 -34 -35 0
4 34 36 0
4 -34 -36 0
5 34 38 0
5 -34 -38 0
6 34 40 0
6 -34 -40 0
6 34 41 0
6 -34 -41 0
7 34 43 0
7 -34 -43 0
2 35 36 0
2 -35 -36 0
5 35 37 0
5 -35 -37 0
4 35 38 0
4 -35 -38 0
7 35 39 0
7 -35 -39 0
10 35 40 0
10 -35 -40 0
3 35 41 0
3 -35 -41 0
7 35 42 0
7 -35 -42 0
9 35 43 0
9 -35 -43 0
2 36 37 0
2 -36 -37 0
4 36 38 0
4 -36 -38 0
2 36 39 0
2 -36 -39 0
7 36 40 0
7 -36 -40 0
6 37 38 0
6 -37 -38 0
7 37 39 0
7 -37 -39 0
6 37 40 0
6 -37 -40 0
1 37 41 0
1 -37 -41 0
6 37 42 0
6 -37 -42 0
6 37 43 0
6 -37 -43 0
3 38 40 0
3 -38 -40 0
1 38 41 0
1 -38 -41 0
4 38 43 0
4 -38 -43 0
1 39 41 0
1 -39 -41 0
10 39 42 0
10 -39 -42 0
7 39 43 0
7 -39 -43 0
8 40 41 0
8 -40 -41 0
9 40 42 0
9 -40 -42 0
10 41 43 0
10 -41 -43 0
2 42 43 0
2 -42 -43 0
